
Gurobi 9.1.2 (win64, Java) logging started Tue Nov  9 15:36:33 2021

Academic license - for non-commercial use only - expires 2022-10-30
Gurobi Optimizer version 9.1.2 build v9.1.2rc0 (win64)
Thread count: 6 physical cores, 12 logical processors, using up to 12 threads
Optimize a model with 450 rows, 45000 columns and 90000 nonzeros
Model fingerprint: 0x7a9ddb28
Variable types: 0 continuous, 45000 integer (45000 binary)
Coefficient statistics:
  Matrix range     [1e+00, 1e+03]
  Objective range  [1e+00, 1e+03]
  Bounds range     [1e+00, 1e+00]
  RHS range        [1e+00, 1e+03]
Found heuristic solution: objective 87968.000000
Presolve removed 113 rows and 22085 columns
Presolve time: 0.30s
Presolved: 337 rows, 22915 columns, 45815 nonzeros
Found heuristic solution: objective 88414.000000
Variable types: 0 continuous, 22915 integer (22915 binary)
Presolve removed 0 rows and 13 columns
Presolved: 337 rows, 22902 columns, 45802 nonzeros


Root relaxation: objective 9.049520e+04, 743 iterations, 0.02 seconds

    Nodes    |    Current Node    |     Objective Bounds      |     Work
 Expl Unexpl |  Obj  Depth IntInf | Incumbent    BestBd   Gap | It/Node Time

     0     0 90495.1950    0    1 88414.0000 90495.1950  2.35%     -    0s
H    0     0                    89887.000000 90495.1950  0.68%     -    0s
H    0     0                    90402.000000 90495.1950  0.10%     -    0s

Cutting planes:
  Cover: 1

Explored 1 nodes (5908 simplex iterations) in 0.56 seconds
Thread count was 12 (of 12 available processors)

Solution count 4: 90402 89887 88414 87968 

Optimal solution found (tolerance 1.00e-04)
Best objective 9.040200000000e+04, best bound 9.040200000000e+04, gap 0.0000%
